p tw 169 30421 2 
1 3 
1 4 
1 5 
1 6 
1 7 
1 8 
1 9 
1 10 
1 11 
1 12 
1 13 
1 14 
1 19 
1 27 
1 34 
1 40 
1 42 
1 53 
1 65 
1 66 
1 69 
1 79 
1 80 
1 92 
1 101 
1 105 
1 113 
1 118 
1 122 
1 131 
1 137 
1 144 
1 154 
1 157 
1 168 
2 3 
2 4 
2 5 
2 6 
2 7 
2 8 
2 9 
2 10 
2 11 
2 12 
2 13 
2 15 
2 26 
2 28 
2 37 
2 41 
2 48 
2 54 
2 60 
2 67 
2 72 
2 80 
2 84 
2 93 
2 96 
2 106 
2 108 
2 119 
2 127 
2 132 
2 142 
2 145 
2 146 
2 157 
2 158 
3 4 
3 5 
3 6 
3 7 
3 8 
3 9 
3 10 
3 11 
3 12 
3 13 
3 16 
3 21 
3 27 
3 29 
3 42 
3 52 
3 54 
3 55 
3 68 
3 76 
3 81 
3 88 
3 94 
3 100 
3 107 
3 116 
3 120 
3 124 
3 133 
3 136 
3 146 
3 148 
3 159 
3 160 
4 5 
4 6 
4 7 
4 8 
4 9 
4 10 
4 11 
4 12 
4 13 
4 17 
4 18 
4 29 
4 30 
4 43 
4 46 
4 56 
4 62 
4 69 
4 74 
4 79 
4 82 
4 95 
4 104 
4 108 
4 112 
4 121 
4 129 
4 134 
4 141 
4 147 
4 149 
4 158 
4 160 
5 6 
5 7 
5 8 
5 9 
5 10 
5 11 
5 12 
5 13 
5 14 
5 18 
5 31 
5 38 
5 44 
5 50 
5 57 
5 59 
5 70 
5 75 
5 83 
5 86 
5 95 
5 96 
5 107 
5 109 
5 122 
5 126 
5 135 
5 143 
5 145 
5 148 
5 161 
5 162 
6 7 
6 8 
6 9 
6 10 
6 11 
6 12 
6 13 
6 19 
6 23 
6 32 
6 33 
6 43 
6 45 
6 58 
6 64 
6 66 
6 71 
6 84 
6 91 
6 93 
6 97 
6 109 
6 110 
6 123 
6 128 
6 136 
6 139 
6 149 
6 151 
6 159 
6 162 
7 8 
7 9 
7 10 
7 11 
7 12 
7 13 
7 20 
7 22 
7 28 
7 33 
7 46 
7 47 
7 56 
7 59 
7 71 
7 72 
7 85 
7 89 
7 98 
7 103 
7 111 
7 114 
7 120 
7 124 
7 131 
7 137 
7 150 
7 156 
7 161 
7 163 
8 9 
8 10 
8 11 
8 12 
8 13 
8 21 
8 25 
8 34 
8 35 
8 47 
8 49 
8 60 
8 63 
8 70 
8 73 
8 82 
8 86 
8 94 
8 99 
8 112 
8 117 
8 123 
8 125 
8 132 
8 138 
8 144 
8 151 
8 163 
8 164 
9 10 
9 11 
9 12 
9 13 
9 17 
9 22 
9 32 
9 35 
9 48 
9 51 
9 53 
9 61 
9 74 
9 78 
9 83 
9 87 
9 100 
9 102 
9 106 
9 113 
9 125 
9 126 
9 133 
9 139 
9 150 
9 152 
9 165 
9 166 
10 11 
10 12 
10 13 
10 15 
10 23 
10 31 
10 36 
10 40 
10 49 
10 61 
10 62 
10 68 
10 75 
10 85 
10 88 
10 97 
10 101 
10 114 
10 115 
10 121 
10 127 
10 138 
10 140 
10 153 
10 155 
10 166 
10 169 
11 12 
11 13 
11 20 
11 24 
11 37 
11 39 
11 44 
11 50 
11 55 
11 63 
11 73 
11 76 
11 89 
11 90 
11 92 
11 102 
11 110 
11 115 
11 119 
11 128 
11 134 
11 141 
11 153 
11 154 
11 165 
11 167 
12 13 
12 24 
12 25 
12 30 
12 38 
12 45 
12 51 
12 57 
12 64 
12 67 
12 77 
12 81 
12 90 
12 98 
12 103 
12 105 
12 116 
12 129 
12 130 
12 140 
12 142 
12 152 
12 155 
12 164 
12 168 
13 16 
13 26 
13 36 
13 39 
13 41 
13 52 
13 58 
13 65 
13 77 
13 78 
13 87 
13 91 
13 99 
13 104 
13 111 
13 117 
13 118 
13 130 
13 135 
13 143 
13 147 
13 156 
13 167 
13 169 
14 15 
14 16 
14 17 
14 18 
14 19 
14 20 
14 21 
14 22 
14 23 
14 24 
14 25 
14 26 
14 27 
14 38 
14 40 
14 50 
14 53 
14 59 
14 66 
14 75 
14 79 
14 86 
14 92 
14 95 
14 105 
14 107 
14 118 
14 126 
14 131 
14 143 
14 144 
14 145 
14 157 
14 162 
15 16 
15 17 
15 18 
15 19 
15 20 
15 21 
15 22 
15 23 
15 24 
15 25 
15 26 
15 28 
15 31 
15 40 
15 41 
15 54 
15 61 
15 67 
15 68 
15 80 
15 85 
15 93 
15 97 
15 106 
15 115 
15 119 
15 121 
15 132 
15 138 
15 145 
15 155 
15 158 
15 169 
16 17 
16 18 
16 19 
16 20 
16 21 
16 22 
16 23 
16 24 
16 25 
16 26 
16 29 
16 36 
16 41 
16 42 
16 55 
16 58 
16 68 
16 77 
16 81 
16 87 
16 94 
16 99 
16 107 
16 111 
16 118 
16 120 
16 133 
16 135 
16 146 
16 147 
16 159 
16 167 
17 18 
17 19 
17 20 
17 21 
17 22 
17 23 
17 24 
17 25 
17 26 
17 30 
17 32 
17 43 
17 51 
17 53 
17 56 
17 69 
17 78 
17 82 
17 83 
17 95 
17 102 
17 106 
17 108 
17 121 
17 125 
17 133 
17 134 
17 147 
17 150 
17 160 
17 166 
18 19 
18 20 
18 21 
18 22 
18 23 
18 24 
18 25 
18 26 
18 29 
18 31 
18 44 
18 46 
18 57 
18 62 
18 70 
18 74 
18 79 
18 83 
18 96 
18 104 
18 109 
18 112 
18 122 
18 129 
18 135 
18 141 
18 148 
18 149 
18 158 
18 161 
19 20 
19 21 
19 22 
19 23 
19 24 
19 25 
19 26 
19 32 
19 34 
19 42 
19 45 
19 58 
19 65 
19 69 
19 71 
19 80 
19 84 
19 97 
19 101 
19 110 
19 113 
19 122 
19 123 
19 136 
19 137 
19 149 
19 154 
19 162 
19 168 
20 21 
20 22 
20 23 
20 24 
20 25 
20 26 
20 33 
20 39 
20 44 
20 46 
20 55 
20 59 
20 72 
20 73 
20 85 
20 90 
20 92 
20 98 
20 110 
20 111 
20 119 
20 124 
20 134 
20 137 
20 150 
20 153 
20 163 
20 165 
21 22 
21 23 
21 24 
21 25 
21 26 
21 27 
21 34 
21 47 
21 52 
21 54 
21 60 
21 73 
21 76 
21 86 
21 88 
21 99 
21 100 
21 112 
21 116 
21 124 
21 125 
21 136 
21 138 
21 148 
21 151 
21 160 
21 164 
22 23 
22 24 
22 25 
22 26 
22 28 
22 35 
22 47 
22 48 
22 56 
22 61 
22 71 
22 74 
22 87 
22 89 
22 100 
22 103 
22 113 
22 114 
22 120 
22 126 
22 131 
22 139 
22 152 
22 156 
22 161 
22 165 
23 24 
23 25 
23 26 
23 33 
23 36 
23 43 
23 49 
23 62 
23 64 
23 66 
23 75 
23 88 
23 91 
23 93 
23 101 
23 109 
23 114 
23 127 
23 128 
23 139 
23 140 
23 151 
23 153 
23 159 
23 166 
24 25 
24 26 
24 30 
24 37 
24 45 
24 50 
24 57 
24 63 
24 67 
24 76 
24 81 
24 89 
24 98 
24 102 
24 105 
24 115 
24 128 
24 130 
24 140 
24 141 
24 152 
24 154 
24 164 
24 167 
25 26 
25 35 
25 38 
25 49 
25 51 
25 63 
25 64 
25 70 
25 77 
25 82 
25 90 
25 94 
25 103 
25 116 
25 117 
25 123 
25 129 
25 132 
25 142 
25 144 
25 155 
25 163 
25 168 
26 37 
26 39 
26 48 
26 52 
26 60 
26 65 
26 72 
26 78 
26 84 
26 91 
26 96 
26 104 
26 108 
26 117 
26 127 
26 130 
26 142 
26 143 
26 146 
26 156 
26 157 
26 169 
27 28 
27 29 
27 30 
27 31 
27 32 
27 33 
27 34 
27 35 
27 36 
27 37 
27 38 
27 39 
27 40 
27 52 
27 53 
27 54 
27 66 
27 76 
27 79 
27 88 
27 92 
27 100 
27 105 
27 116 
27 118 
27 124 
27 131 
27 136 
27 144 
27 148 
27 157 
27 160 
28 29 
28 30 
28 31 
28 32 
28 33 
28 34 
28 35 
28 36 
28 37 
28 38 
28 39 
28 41 
28 47 
28 54 
28 56 
28 67 
28 71 
28 80 
28 89 
28 93 
28 103 
28 106 
28 114 
28 119 
28 120 
28 131 
28 132 
28 145 
28 156 
28 158 
28 161 
29 30 
29 31 
29 32 
29 33 
29 34 
29 35 
29 36 
29 37 
29 38 
29 39 
29 42 
29 46 
29 55 
29 62 
29 68 
29 74 
29 79 
29 81 
29 94 
29 104 
29 107 
29 112 
29 120 
29 129 
29 133 
29 141 
29 146 
29 149 
29 158 
29 159 
30 31 
30 32 
30 33 
30 34 
30 35 
30 36 
30 37 
30 38 
30 39 
30 43 
30 45 
30 56 
30 57 
30 67 
30 69 
30 81 
30 82 
30 95 
30 98 
30 105 
30 108 
30 121 
30 130 
30 134 
30 140 
30 147 
30 152 
30 160 
30 164 
31 32 
31 33 
31 34 
31 35 
31 36 
31 37 
31 38 
31 39 
31 40 
31 44 
31 57 
31 61 
31 68 
31 70 
31 83 
31 85 
31 96 
31 97 
31 109 
31 115 
31 121 
31 122 
31 135 
31 138 
31 148 
31 155 
31 161 
31 169 
32 33 
32 34 
32 35 
32 36 
32 37 
32 38 
32 39 
32 45 
32 51 
32 53 
32 58 
32 71 
32 78 
32 83 
32 84 
32 97 
32 102 
32 106 
32 110 
32 123 
32 125 
32 133 
32 136 
32 149 
32 150 
32 162 
32 166 
33 34 
33 35 
33 36 
33 37 
33 38 
33 39 
33 43 
33 46 
33 59 
33 64 
33 66 
33 72 
33 85 
33 91 
33 93 
33 98 
33 109 
33 111 
33 124 
33 128 
33 137 
33 139 
33 150 
33 151 
33 159 
33 163 
34 35 
34 36 
34 37 
34 38 
34 39 
34 42 
34 47 
34 60 
34 65 
34 69 
34 73 
34 80 
34 86 
34 99 
34 101 
34 112 
34 113 
34 122 
34 125 
34 137 
34 138 
34 151 
34 154 
34 164 
34 168 
35 36 
35 37 
35 38 
35 39 
35 48 
35 49 
35 61 
35 63 
35 70 
35 74 
35 82 
35 87 
35 94 
35 100 
35 113 
35 117 
35 123 
35 126 
35 132 
35 139 
35 144 
35 152 
35 163 
35 165 
36 37 
36 38 
36 39 
36 41 
36 49 
36 58 
36 62 
36 75 
36 77 
36 87 
36 88 
36 99 
36 101 
36 111 
36 114 
36 118 
36 127 
36 135 
36 140 
36 147 
36 153 
36 166 
36 167 
37 38 
37 39 
37 48 
37 50 
37 60 
37 63 
37 72 
37 76 
37 84 
37 89 
37 96 
37 102 
37 108 
37 115 
37 127 
37 128 
37 141 
37 142 
37 146 
37 154 
37 157 
37 167 
38 39 
38 50 
38 51 
38 59 
38 64 
38 75 
38 77 
38 86 
38 90 
38 95 
38 103 
38 107 
38 116 
38 126 
38 129 
38 142 
38 143 
38 145 
38 155 
38 162 
38 168 
39 44 
39 52 
39 55 
39 65 
39 73 
39 78 
39 90 
39 91 
39 92 
39 104 
39 110 
39 117 
39 119 
39 130 
39 134 
39 143 
39 153 
39 156 
39 165 
39 169 
40 41 
40 42 
40 43 
40 44 
40 45 
40 46 
40 47 
40 48 
40 49 
40 50 
40 51 
40 52 
40 53 
40 61 
40 66 
40 68 
40 79 
40 85 
40 92 
40 97 
40 105 
40 115 
40 118 
40 121 
40 131 
40 138 
40 144 
40 155 
40 157 
40 169 
41 42 
41 43 
41 44 
41 45 
41 46 
41 47 
41 48 
41 49 
41 50 
41 51 
41 52 
41 54 
41 58 
41 67 
41 77 
41 80 
41 87 
41 93 
41 99 
41 106 
41 111 
41 118 
41 119 
41 132 
41 135 
41 145 
41 147 
41 158 
41 167 
42 43 
42 44 
42 45 
42 46 
42 47 
42 48 
42 49 
42 50 
42 51 
42 52 
42 55 
42 65 
42 68 
42 69 
42 80 
42 81 
42 94 
42 101 
42 107 
42 113 
42 120 
42 122 
42 133 
42 137 
42 146 
42 154 
42 159 
42 168 
43 44 
43 45 
43 46 
43 47 
43 48 
43 49 
43 50 
43 51 
43 52 
43 56 
43 64 
43 66 
43 69 
43 82 
43 91 
43 93 
43 95 
43 108 
43 109 
43 121 
43 128 
43 134 
43 139 
43 147 
43 151 
43 159 
43 160 
44 45 
44 46 
44 47 
44 48 
44 49 
44 50 
44 51 
44 52 
44 55 
44 57 
44 70 
44 73 
44 83 
44 90 
44 92 
44 96 
44 109 
44 110 
44 119 
44 122 
44 134 
44 135 
44 148 
44 153 
44 161 
44 165 
45 46 
45 47 
45 48 
45 49 
45 50 
45 51 
45 52 
45 57 
45 58 
45 67 
45 71 
45 81 
45 84 
45 97 
45 98 
45 105 
45 110 
45 123 
45 130 
45 136 
45 140 
45 149 
45 152 
45 162 
45 164 
46 47 
46 48 
46 49 
46 50 
46 51 
46 52 
46 59 
46 62 
46 72 
46 74 
46 79 
46 85 
46 98 
46 104 
46 111 
46 112 
46 124 
46 129 
46 137 
46 141 
46 149 
46 150 
46 158 
46 163 
47 48 
47 49 
47 50 
47 51 
47 52 
47 56 
47 60 
47 71 
47 73 
47 86 
47 89 
47 99 
47 103 
47 112 
47 114 
47 120 
47 125 
47 131 
47 138 
47 151 
47 156 
47 161 
47 164 
48 49 
48 50 
48 51 
48 52 
48 60 
48 61 
48 72 
48 74 
48 84 
48 87 
48 96 
48 100 
48 108 
48 113 
48 126 
48 127 
48 139 
48 142 
48 146 
48 152 
48 157 
48 165 
49 50 
49 51 
49 52 
49 62 
49 63 
49 70 
49 75 
49 82 
49 88 
49 94 
49 101 
49 114 
49 117 
49 123 
49 127 
49 132 
49 140 
49 144 
49 153 
49 163 
49 166 
50 51 
50 52 
50 59 
50 63 
50 75 
50 76 
50 86 
50 89 
50 95 
50 102 
50 107 
50 115 
50 126 
50 128 
50 141 
50 143 
50 145 
50 154 
50 162 
50 167 
51 52 
51 53 
51 64 
51 77 
51 78 
51 83 
51 90 
51 102 
51 103 
51 106 
51 116 
51 125 
51 129 
51 133 
51 142 
51 150 
51 155 
51 166 
51 168 
52 54 
52 65 
52 76 
52 78 
52 88 
52 91 
52 100 
52 104 
52 116 
52 117 
52 124 
52 130 
52 136 
52 143 
52 148 
52 156 
52 160 
52 169 
53 54 
53 55 
53 56 
53 57 
53 58 
53 59 
53 60 
53 61 
53 62 
53 63 
53 64 
53 65 
53 66 
53 78 
53 79 
53 83 
53 92 
53 102 
53 105 
53 106 
53 118 
53 125 
53 131 
53 133 
53 144 
53 150 
53 157 
53 166 
54 55 
54 56 
54 57 
54 58 
54 59 
54 60 
54 61 
54 62 
54 63 
54 64 
54 65 
54 67 
54 76 
54 80 
54 88 
54 93 
54 100 
54 106 
54 116 
54 119 
54 124 
54 132 
54 136 
54 145 
54 148 
54 158 
54 160 
55 56 
55 57 
55 58 
55 59 
55 60 
55 61 
55 62 
55 63 
55 64 
55 65 
55 68 
55 73 
55 81 
55 90 
55 92 
55 94 
55 107 
55 110 
55 119 
55 120 
55 133 
55 134 
55 146 
55 153 
55 159 
55 165 
56 57 
56 58 
56 59 
56 60 
56 61 
56 62 
56 63 
56 64 
56 65 
56 69 
56 71 
56 82 
56 89 
56 95 
56 103 
56 108 
56 114 
56 120 
56 121 
56 131 
56 134 
56 147 
56 156 
56 160 
56 161 
57 58 
57 59 
57 60 
57 61 
57 62 
57 63 
57 64 
57 65 
57 67 
57 70 
57 81 
57 83 
57 96 
57 98 
57 105 
57 109 
57 122 
57 130 
57 135 
57 140 
57 148 
57 152 
57 161 
57 164 
58 59 
58 60 
58 61 
58 62 
58 63 
58 64 
58 65 
58 71 
58 77 
58 84 
58 87 
58 97 
58 99 
58 110 
58 111 
58 118 
58 123 
58 135 
58 136 
58 147 
58 149 
58 162 
58 167 
59 60 
59 61 
59 62 
59 63 
59 64 
59 65 
59 72 
59 75 
59 85 
59 86 
59 95 
59 98 
59 107 
59 111 
59 124 
59 126 
59 137 
59 143 
59 145 
59 150 
59 162 
59 163 
60 61 
60 62 
60 63 
60 64 
60 65 
60 72 
60 73 
60 84 
60 86 
60 96 
60 99 
60 108 
60 112 
60 125 
60 127 
60 138 
60 142 
60 146 
60 151 
60 157 
60 164 
61 62 
61 63 
61 64 
61 65 
61 68 
61 74 
61 85 
61 87 
61 97 
61 100 
61 113 
61 115 
61 121 
61 126 
61 138 
61 139 
61 152 
61 155 
61 165 
61 169 
62 63 
62 64 
62 65 
62 74 
62 75 
62 79 
62 88 
62 101 
62 104 
62 112 
62 114 
62 127 
62 129 
62 140 
62 141 
62 149 
62 153 
62 158 
62 166 
63 64 
63 65 
63 70 
63 76 
63 82 
63 89 
63 94 
63 102 
63 115 
63 117 
63 123 
63 128 
63 132 
63 141 
63 144 
63 154 
63 163 
63 167 
64 65 
64 66 
64 77 
64 90 
64 91 
64 93 
64 103 
64 109 
64 116 
64 128 
64 129 
64 139 
64 142 
64 151 
64 155 
64 159 
64 168 
65 69 
65 78 
65 80 
65 91 
65 101 
65 104 
65 113 
65 117 
65 122 
65 130 
65 137 
65 143 
65 154 
65 156 
65 168 
65 169 
66 67 
66 68 
66 69 
66 70 
66 71 
66 72 
66 73 
66 74 
66 75 
66 76 
66 77 
66 78 
66 79 
66 91 
66 92 
66 93 
66 105 
66 109 
66 118 
66 128 
66 131 
66 139 
66 144 
66 151 
66 157 
66 159 
67 68 
67 69 
67 70 
67 71 
67 72 
67 73 
67 74 
67 75 
67 76 
67 77 
67 78 
67 80 
67 81 
67 93 
67 98 
67 105 
67 106 
67 119 
67 130 
67 132 
67 140 
67 145 
67 152 
67 158 
67 164 
68 69 
68 70 
68 71 
68 72 
68 73 
68 74 
68 75 
68 76 
68 77 
68 78 
68 81 
68 85 
68 94 
68 97 
68 107 
68 115 
68 120 
68 121 
68 133 
68 138 
68 146 
68 155 
68 159 
68 169 
69 70 
69 71 
69 72 
69 73 
69 74 
69 75 
69 76 
69 77 
69 78 
69 80 
69 82 
69 95 
69 101 
69 108 
69 113 
69 121 
69 122 
69 134 
69 137 
69 147 
69 154 
69 160 
69 168 
70 71 
70 72 
70 73 
70 74 
70 75 
70 76 
70 77 
70 78 
70 82 
70 83 
70 94 
70 96 
70 109 
70 117 
70 122 
70 123 
70 132 
70 135 
70 144 
70 148 
70 161 
70 163 
71 72 
71 73 
71 74 
71 75 
71 76 
71 77 
71 78 
71 84 
71 89 
71 97 
71 103 
71 110 
71 114 
71 120 
71 123 
71 131 
71 136 
71 149 
71 156 
71 161 
71 162 
72 73 
72 74 
72 75 
72 76 
72 77 
72 78 
72 84 
72 85 
72 96 
72 98 
72 108 
72 111 
72 124 
72 127 
72 137 
72 142 
72 146 
72 150 
72 157 
72 163 
73 74 
73 75 
73 76 
73 77 
73 78 
73 86 
73 90 
73 92 
73 99 
73 110 
73 112 
73 119 
73 125 
73 134 
73 138 
73 151 
73 153 
73 164 
73 165 
74 75 
74 76 
74 77 
74 78 
74 79 
74 87 
74 100 
74 104 
74 112 
74 113 
74 126 
74 129 
74 139 
74 141 
74 149 
74 152 
74 158 
74 165 
75 76 
75 77 
75 78 
75 86 
75 88 
75 95 
75 101 
75 107 
75 114 
75 126 
75 127 
75 140 
75 143 
75 145 
75 153 
75 162 
75 166 
76 77 
76 78 
76 88 
76 89 
76 100 
76 102 
76 115 
76 116 
76 124 
76 128 
76 136 
76 141 
76 148 
76 154 
76 160 
76 167 
77 78 
77 87 
77 90 
77 99 
77 103 
77 111 
77 116 
77 118 
77 129 
77 135 
77 142 
77 147 
77 155 
77 167 
77 168 
78 83 
78 91 
78 102 
78 104 
78 106 
78 117 
78 125 
78 130 
78 133 
78 143 
78 150 
78 156 
78 166 
78 169 
79 80 
79 81 
79 82 
79 83 
79 84 
79 85 
79 86 
79 87 
79 88 
79 89 
79 90 
79 91 
79 92 
79 104 
79 105 
79 112 
79 118 
79 129 
79 131 
79 141 
79 144 
79 149 
79 157 
79 158 
80 81 
80 82 
80 83 
80 84 
80 85 
80 86 
80 87 
80 88 
80 89 
80 90 
80 91 
80 93 
80 101 
80 106 
80 113 
80 119 
80 122 
80 132 
80 137 
80 145 
80 154 
80 158 
80 168 
81 82 
81 83 
81 84 
81 85 
81 86 
81 87 
81 88 
81 89 
81 90 
81 91 
81 94 
81 98 
81 105 
81 107 
81 120 
81 130 
81 133 
81 140 
81 146 
81 152 
81 159 
81 164 
82 83 
82 84 
82 85 
82 86 
82 87 
82 88 
82 89 
82 90 
82 91 
82 94 
82 95 
82 108 
82 117 
82 121 
82 123 
82 132 
82 134 
82 144 
82 147 
82 160 
82 163 
83 84 
83 85 
83 86 
83 87 
83 88 
83 89 
83 90 
83 91 
83 96 
83 102 
83 106 
83 109 
83 122 
83 125 
83 133 
83 135 
83 148 
83 150 
83 161 
83 166 
84 85 
84 86 
84 87 
84 88 
84 89 
84 90 
84 91 
84 96 
84 97 
84 108 
84 110 
84 123 
84 127 
84 136 
84 142 
84 146 
84 149 
84 157 
84 162 
85 86 
85 87 
85 88 
85 89 
85 90 
85 91 
85 97 
85 98 
85 111 
85 115 
85 121 
85 124 
85 137 
85 138 
85 150 
85 155 
85 163 
85 169 
86 87 
86 88 
86 89 
86 90 
86 91 
86 95 
86 99 
86 107 
86 112 
86 125 
86 126 
86 138 
86 143 
86 145 
86 151 
86 162 
86 164 
87 88 
87 89 
87 90 
87 91 
87 99 
87 100 
87 111 
87 113 
87 118 
87 126 
87 135 
87 139 
87 147 
87 152 
87 165 
87 167 
88 89 
88 90 
88 91 
88 100 
88 101 
88 114 
88 116 
88 124 
88 127 
88 136 
88 140 
88 148 
88 153 
88 160 
88 166 
89 90 
89 91 
89 102 
89 103 
89 114 
89 115 
89 120 
89 128 
89 131 
89 141 
89 154 
89 156 
89 161 
89 167 
90 91 
90 92 
90 103 
90 110 
90 116 
90 119 
90 129 
90 134 
90 142 
90 153 
90 155 
90 165 
90 168 
91 93 
91 104 
91 109 
91 117 
91 128 
91 130 
91 139 
91 143 
91 151 
91 156 
91 159 
91 169 
92 93 
92 94 
92 95 
92 96 
92 97 
92 98 
92 99 
92 100 
92 101 
92 102 
92 103 
92 104 
92 105 
92 110 
92 118 
92 119 
92 131 
92 134 
92 144 
92 153 
92 157 
92 165 
93 94 
93 95 
93 96 
93 97 
93 98 
93 99 
93 100 
93 101 
93 102 
93 103 
93 104 
93 106 
93 109 
93 119 
93 128 
93 132 
93 139 
93 145 
93 151 
93 158 
93 159 
94 95 
94 96 
94 97 
94 98 
94 99 
94 100 
94 101 
94 102 
94 103 
94 104 
94 107 
94 117 
94 120 
94 123 
94 132 
94 133 
94 144 
94 146 
94 159 
94 163 
95 96 
95 97 
95 98 
95 99 
95 100 
95 101 
95 102 
95 103 
95 104 
95 107 
95 108 
95 121 
95 126 
95 134 
95 143 
95 145 
95 147 
95 160 
95 162 
96 97 
96 98 
96 99 
96 100 
96 101 
96 102 
96 103 
96 104 
96 108 
96 109 
96 122 
96 127 
96 135 
96 142 
96 146 
96 148 
96 157 
96 161 
97 98 
97 99 
97 100 
97 101 
97 102 
97 103 
97 104 
97 110 
97 115 
97 121 
97 123 
97 136 
97 138 
97 149 
97 155 
97 162 
97 169 
98 99 
98 100 
98 101 
98 102 
98 103 
98 104 
98 105 
98 111 
98 124 
98 130 
98 137 
98 140 
98 150 
98 152 
98 163 
98 164 
99 100 
99 101 
99 102 
99 103 
99 104 
99 111 
99 112 
99 118 
99 125 
99 135 
99 138 
99 147 
99 151 
99 164 
99 167 
100 101 
100 102 
100 103 
100 104 
100 113 
100 116 
100 124 
100 126 
100 136 
100 139 
100 148 
100 152 
100 160 
100 165 
101 102 
101 103 
101 104 
101 113 
101 114 
101 122 
101 127 
101 137 
101 140 
101 153 
101 154 
101 166 
101 168 
102 103 
102 104 
102 106 
102 115 
102 125 
102 128 
102 133 
102 141 
102 150 
102 154 
102 166 
102 167 
103 104 
103 114 
103 116 
103 120 
103 129 
103 131 
103 142 
103 155 
103 156 
103 161 
103 168 
104 112 
104 117 
104 129 
104 130 
104 141 
104 143 
104 149 
104 156 
104 158 
104 169 
105 106 
105 107 
105 108 
105 109 
105 110 
105 111 
105 112 
105 113 
105 114 
105 115 
105 116 
105 117 
105 118 
105 130 
105 131 
105 140 
105 144 
105 152 
105 157 
105 164 
106 107 
106 108 
106 109 
106 110 
106 111 
106 112 
106 113 
106 114 
106 115 
106 116 
106 117 
106 119 
106 125 
106 132 
106 133 
106 145 
106 150 
106 158 
106 166 
107 108 
107 109 
107 110 
107 111 
107 112 
107 113 
107 114 
107 115 
107 116 
107 117 
107 120 
107 126 
107 133 
107 143 
107 145 
107 146 
107 159 
107 162 
108 109 
108 110 
108 111 
108 112 
108 113 
108 114 
108 115 
108 116 
108 117 
108 121 
108 127 
108 134 
108 142 
108 146 
108 147 
108 157 
108 160 
109 110 
109 111 
109 112 
109 113 
109 114 
109 115 
109 116 
109 117 
109 122 
109 128 
109 135 
109 139 
109 148 
109 151 
109 159 
109 161 
110 111 
110 112 
110 113 
110 114 
110 115 
110 116 
110 117 
110 119 
110 123 
110 134 
110 136 
110 149 
110 153 
110 162 
110 165 
111 112 
111 113 
111 114 
111 115 
111 116 
111 117 
111 118 
111 124 
111 135 
111 137 
111 147 
111 150 
111 163 
111 167 
112 113 
112 114 
112 115 
112 116 
112 117 
112 125 
112 129 
112 138 
112 141 
112 149 
112 151 
112 158 
112 164 
113 114 
113 115 
113 116 
113 117 
113 122 
113 126 
113 137 
113 139 
113 152 
113 154 
113 165 
113 168 
114 115 
114 116 
114 117 
114 120 
114 127 
114 131 
114 140 
114 153 
114 156 
114 161 
114 166 
115 116 
115 117 
115 121 
115 128 
115 138 
115 141 
115 154 
115 155 
115 167 
115 169 
116 117 
116 124 
116 129 
116 136 
116 142 
116 148 
116 155 
116 160 
116 168 
117 123 
117 130 
117 132 
117 143 
117 144 
117 156 
117 163 
117 169 
118 119 
118 120 
118 121 
118 122 
118 123 
118 124 
118 125 
118 126 
118 127 
118 128 
118 129 
118 130 
118 131 
118 135 
118 144 
118 147 
118 157 
118 167 
119 120 
119 121 
119 122 
119 123 
119 124 
119 125 
119 126 
119 127 
119 128 
119 129 
119 130 
119 132 
119 134 
119 145 
119 153 
119 158 
119 165 
120 121 
120 122 
120 123 
120 124 
120 125 
120 126 
120 127 
120 128 
120 129 
120 130 
120 131 
120 133 
120 146 
120 156 
120 159 
120 161 
121 122 
121 123 
121 124 
121 125 
121 126 
121 127 
121 128 
121 129 
121 130 
121 134 
121 138 
121 147 
121 155 
121 160 
121 169 
122 123 
122 124 
122 125 
122 126 
122 127 
122 128 
122 129 
122 130 
122 135 
122 137 
122 148 
122 154 
122 161 
122 168 
123 124 
123 125 
123 126 
123 127 
123 128 
123 129 
123 130 
123 132 
123 136 
123 144 
123 149 
123 162 
123 163 
124 125 
124 126 
124 127 
124 128 
124 129 
124 130 
124 136 
124 137 
124 148 
124 150 
124 160 
124 163 
125 126 
125 127 
125 128 
125 129 
125 130 
125 133 
125 138 
125 150 
125 151 
125 164 
125 166 
126 127 
126 128 
126 129 
126 130 
126 139 
126 143 
126 145 
126 152 
126 162 
126 165 
127 128 
127 129 
127 130 
127 140 
127 142 
127 146 
127 153 
127 157 
127 166 
128 129 
128 130 
128 139 
128 141 
128 151 
128 154 
128 159 
128 167 
129 130 
129 141 
129 142 
129 149 
129 155 
129 158 
129 168 
130 140 
130 143 
130 152 
130 156 
130 164 
130 169 
131 132 
131 133 
131 134 
131 135 
131 136 
131 137 
131 138 
131 139 
131 140 
131 141 
131 142 
131 143 
131 144 
131 156 
131 157 
131 161 
132 133 
132 134 
132 135 
132 136 
132 137 
132 138 
132 139 
132 140 
132 141 
132 142 
132 143 
132 144 
132 145 
132 158 
132 163 
133 134 
133 135 
133 136 
133 137 
133 138 
133 139 
133 140 
133 141 
133 142 
133 143 
133 146 
133 150 
133 159 
133 166 
134 135 
134 136 
134 137 
134 138 
134 139 
134 140 
134 141 
134 142 
134 143 
134 147 
134 153 
134 160 
134 165 
135 136 
135 137 
135 138 
135 139 
135 140 
135 141 
135 142 
135 143 
135 147 
135 148 
135 161 
135 167 
136 137 
136 138 
136 139 
136 140 
136 141 
136 142 
136 143 
136 148 
136 149 
136 160 
136 162 
137 138 
137 139 
137 140 
137 141 
137 142 
137 143 
137 150 
137 154 
137 163 
137 168 
138 139 
138 140 
138 141 
138 142 
138 143 
138 151 
138 155 
138 164 
138 169 
139 140 
139 141 
139 142 
139 143 
139 151 
139 152 
139 159 
139 165 
140 141 
140 142 
140 143 
140 152 
140 153 
140 164 
140 166 
141 142 
141 143 
141 149 
141 154 
141 158 
141 167 
142 143 
142 146 
142 155 
142 157 
142 168 
143 145 
143 156 
143 162 
143 169 
144 145 
144 146 
144 147 
144 148 
144 149 
144 150 
144 151 
144 152 
144 153 
144 154 
144 155 
144 156 
144 157 
144 163 
145 146 
145 147 
145 148 
145 149 
145 150 
145 151 
145 152 
145 153 
145 154 
145 155 
145 156 
145 158 
145 162 
146 147 
146 148 
146 149 
146 150 
146 151 
146 152 
146 153 
146 154 
146 155 
146 156 
146 157 
146 159 
147 148 
147 149 
147 150 
147 151 
147 152 
147 153 
147 154 
147 155 
147 156 
147 160 
147 167 
148 149 
148 150 
148 151 
148 152 
148 153 
148 154 
148 155 
148 156 
148 160 
148 161 
149 150 
149 151 
149 152 
149 153 
149 154 
149 155 
149 156 
149 158 
149 162 
150 151 
150 152 
150 153 
150 154 
150 155 
150 156 
150 163 
150 166 
151 152 
151 153 
151 154 
151 155 
151 156 
151 159 
151 164 
152 153 
152 154 
152 155 
152 156 
152 164 
152 165 
153 154 
153 155 
153 156 
153 165 
153 166 
154 155 
154 156 
154 167 
154 168 
155 156 
155 168 
155 169 
156 161 
156 169 
157 158 
157 159 
157 160 
157 161 
157 162 
157 163 
157 164 
157 165 
157 166 
157 167 
157 168 
157 169 
158 159 
158 160 
158 161 
158 162 
158 163 
158 164 
158 165 
158 166 
158 167 
158 168 
158 169 
159 160 
159 161 
159 162 
159 163 
159 164 
159 165 
159 166 
159 167 
159 168 
159 169 
160 161 
160 162 
160 163 
160 164 
160 165 
160 166 
160 167 
160 168 
160 169 
161 162 
161 163 
161 164 
161 165 
161 166 
161 167 
161 168 
161 169 
162 163 
162 164 
162 165 
162 166 
162 167 
162 168 
162 169 
163 164 
163 165 
163 166 
163 167 
163 168 
163 169 
164 165 
164 166 
164 167 
164 168 
164 169 
165 166 
165 167 
165 168 
165 169 
166 167 
166 168 
166 169 
167 168 
167 169 
168 169 
